============================[ Problem Statistics ]=============================|                                                                             ||  Number of variables:          4242                                         ||  Number of clauses:           10035                                         ||  Parse time:                   0.43 s                                       ||                                                                             |============================[ Search Statistics ]==============================| Conflicts |          ORIGINAL         |          LEARNT          | Progress ||           |    Vars  Clauses Literals |    Limit  Clauses Lit/Cl |          |===============================================================================|       100 |    1591     6240   675241 |     2288      100     53 | 62.501 % |===============================================================================restarts              : 3conflicts             : 242            (373 /sec)decisions             : 508            (0.00 % random) (784 /sec)propagations          : 11736          (18111 /sec)conflict literals     : 18114          (94.93 % deleted)CPU time              : 0.648 sSATISFIABLE